Route #1: 1 5 14 33 26 19 6 2 3 7 8 15 9 16 22 28 40 36 21 20 27 35 39 47 52 65 57 51 38 34 37 50 63 56 64 69 77 89 94 95 90 84 78 91 96 92 85 79 70 66 58 59 71 80 93 97 98 99 100 88 87 76 75 83 82 86 81 72 73 74 67 61 55 68 62 46 45 44 49 48 60 54 53 41 42 43 29 30 31 23 18 17 10 4 11 12 24 32 25 13
Cost 45489
